
 102   30
  10   10   10   10   10   10   10   10   10   10   10   10   10   10   10   10   10   10   10   10   10   10   10   10   10   10   10   10   10   10

   0   0   0   0   0   0   0   0   0   0   0   0   0   0   0   0   0   0   0   0   0   0   0   0   0   0   0   0   0   0   0  27 2 3 4 5 6 7 8 9 10 11 12 13 14 17 18 19 21 22 23 24 25 26 27 28 30 32 51 
   2   0   0   2   0   0   0   0   0   0   0   0   0   0   0   0   0   0   1   1   1   0   0   0   0   0   0   0   0   1   1  14 75 72 65 50 49 47 44 42 40 38 36 31 20 15 
   8   0   0   0   0   0   0   0   0   0   0   0   0   0   0   0   0   0   0   0  10   0   0   0   0   0   0   0   2   8   0  15 99 73 72 68 67 64 55 50 48 47 45 44 42 38 34 
   6   1   0   0   0   0   1   0   0   0   0   0   0   2   0   0   0   0   0   0   0   0   1   0   0   2   0   1   0   0   0   9 68 54 52 48 43 38 35 31 16 
   6   0   0   0   3   0   0   1   0   0   0   1   0   0   0   0   0   0   0   5   0   0   0   0   0   0   0   0   0   0   3  16 99 98 74 67 64 63 58 57 55 54 53 50 49 47 44 38 
   7   0   0   5   0   0   0   0   0   0   0   0   0   0   0   2   0   0  10   0   0   0   0   0   0   6   1   0   0   0   0  16 101 99 91 75 71 70 64 63 62 58 56 53 48 46 43 31 
  10   0   3   6   0   0   0   0   0   0   0   0   0   0   0   0   0   0   0   0  10   0   0   0   0   0   0   0   0  10   0  11 71 66 63 57 56 55 53 52 46 33 31 
   6   0   0   0   0   0   5   0   0   0   0   0   0   0   1   0   0   0   0   0   4   0   6   0   0   0   0   0   4   0   0  13 99 97 71 70 68 63 62 58 55 53 47 43 31 
   3   0   0   0   0   0   5   8   0   0   0   0   0   0   0   5   2   1   0   0   0   0   0   0   0   0   0   0   0   0   0  13 100 95 87 74 71 67 64 63 57 52 41 38 33 
   6   0   0   0   4   1   0   0   0   0   0   8   0   0   0   9   0   0   0   0   0   0   0   0   0   0   0   0   0   0   0  12 99 87 73 70 65 64 62 61 53 52 38 29 
   3   0   0   0   0   0   0   3   0   0   0   0   0   0   0   0   0   0   0   0   0   0   0   0   0   9   0   4   5   0   0  14 97 75 69 67 66 64 63 62 61 60 59 55 43 37 
   5   0   0   0   0  10   0   0   0   0   0   0   0   0   0   4   0   0   0   0   0   0   5   0   0   0   6   0   0   0   0   9 99 71 70 64 62 58 53 38 31 
   1   0   0   5   0   0   0   0   0   0   1   6   0   9   0   9   5   0   0   0   5   0   0   0   0   0   0   0   0   0   0  12 100 88 75 72 70 65 64 59 53 41 39 38 
  10   0   0   0   0   0   0   0   0   1   0   0   0   0   0   0   0   0   0   0   0   1   0   0   0   0   0   0   0   0   0  15 99 98 74 73 71 70 64 63 61 60 59 58 57 52 38 
   3   0   0   0   0   0   7   0   0   0   4   0   0   0   0   0   0   0   6   0   0   3   0   1   0   7   0   0   5   8   0  18 100 99 98 96 95 94 92 91 73 71 67 64 63 61 58 56 53 46 
   2   0   0   0   0   0   0   0   1   0   0   0   0   0   0   0   0   0   0   0   0   0   0   0   1   0   2   0   0   0   0  16 101 99 97 95 94 91 74 73 70 69 66 63 62 56 53 50 
  10   9   0   0   0   0   0   0   7   0   5   0   0   0   0   0   0   0   0   0   0   0   0   0   0   4   0   0   0   0   0  17 100 98 95 91 88 87 83 73 71 70 69 67 63 62 56 53 52 
   9   0   0   0   0   0   0   0   9   0   0   0   0   0   8   0   0   0   0   0   0   0   0   0   0   0   6   0   0  10   0  15 98 94 91 89 86 74 71 69 68 66 64 63 59 54 46 
   6   0   0   0   0   0   0   0   0   0   0   0   0   0   8   0   0   8   6   5   0   0   0   0   0   0   0   0   0   0   0  14 101 99 98 95 92 90 89 75 71 69 62 61 57 46 
   8   0   0   0   0   0   0   0   0   0   0   0   0   7   0   0   0   8   8   0   4   0   0   0   0   3   0   4   0   0   5  17 101 100 99 97 96 93 88 87 83 74 73 70 69 63 58 57 56 
   8   0   0   0   0   0   0   0   0   0   0   0   1   0   0   0   0   0   0   0   0   0   0   7   0   0   0   0   7   0   0  17 101 100 98 97 95 94 91 87 83 73 69 67 63 62 61 56 53 
   8   0   0   0   0   0   0   0   0   0   0   0   3   0   0   6   0   0   0   0   0   7   0   0   0   0   0   0   0   0   0  12 100 98 97 93 75 73 69 64 60 57 56 48 
   9   0   0   0   0   6   0   0   0   7   0   0   0   0   0   0   0   0   0   0   0   0   8   0   4   0   0   0   0   0   0  14 99 98 97 95 90 84 74 69 68 67 64 62 60 47 
   4   0   0   0   0   0   0   0   0   0   0   0   0   0   0   3   0   3   0   6   0   0   8   0   0   0   0   0   0   0   0  10 97 96 95 93 87 83 74 57 55 42 
  10   7   0   0  10   0  10   0   0   7   0   0   6   0   0   3   0   0   0   9   0   0   0   0   0   0   0   0   9   0   0  14 101 98 96 95 94 90 86 84 71 70 69 64 60 50 
   9   0   0  10   0   0   8   0   0   0   0  10   0   0   0   0   0   0   0   0   0   0   0   0   0   5   0   0   0   0   0  16 100 98 97 95 90 89 88 87 84 82 71 69 64 62 60 55 
   7   8   9   0   0   0   0   0   0   0   7   0   0   0   0   0   0   0   0   0   7   0   0   4   0   0   0   0   0   0   0  14 100 99 98 97 94 93 92 88 84 69 68 64 62 53 
   2   0   0   0   0   0   0   0   0   0   0   0   6   0   0   0  10   0   0   0   0   0   0   0   0   0   0   0   0   0   0  16 97 94 91 90 89 88 87 84 82 78 77 71 69 65 64 62 
   5   0   0   0   0   0   0   0   0   0   7   6  10   0   7   0   7   0   0   0   0   0   0   0   0   0   5   0   0   0   5  17 101 100 97 95 93 92 91 89 88 86 83 82 81 74 69 63 60 
   8   0   0   0   0   0   0   0   0   4   0   0   0   0   0   0   0  10   0   0   0   0   5   0   0   0   0   0   0   0   0  14 98 96 95 92 91 90 89 87 86 84 69 64 61 53 
   4   0   0   0   0   0   0   0   0   0   0   0   0   7   0   0   0   6   0   0   0   0   0   0   5   0   0   7   0   0   0  13 100 98 96 95 94 87 83 81 73 69 67 61 60 
   6   6   6   0   0   0   0   5   0   0   0   0   0   0   6   0   0   0   0   0   0   0   0   0   0   0   0   0   0   8   0  14 98 95 92 89 88 87 83 82 78 77 74 73 69 57 
   1   0   0   0   0   0   0   0   6   0   6   0   8   6   0   0   0   0   0   0   0   0   0   0   0   0   0   0   0   0   0  12 99 98 93 90 89 88 84 83 70 69 62 60 
   7   8   0   0   0   0   4   0   0   0   0   0   0   0   0   0   0   7   0   0   0   0   0   7   0  10   0   0   0   0   7  12 101 97 94 91 89 87 84 77 71 70 65 62 
   6   0   0   0   7   0   0   0   0   4   8   0   0   0   0   0   0   0   0   0   7   0   0   0   0  10   0   0   0   0   0  11 101 97 96 95 84 83 81 80 79 76 47 
   6   0   0   0   0   0  10   0   0   0   0   0   0   0   0   0   0   0   0   0   0   0   9   0   0   0   0   0   0   5   0  15 99 95 93 92 90 88 87 86 84 83 82 81 80 69 60 
   2   0   5   0   0   0   0  10   0   0   0   0   0   5   0   0   0   6   0   0   0   0   0   0   0   0  10   0   0   0   0  15 99 98 94 93 89 88 86 85 81 80 79 78 76 73 68 
   8   0   5   0   0   0   0   5   0   0   0   0   0   3   0   0   0   0   0   0   0   0   0   0   6   0   0   0   0   0   0  12 101 97 94 92 91 90 84 83 82 80 76 56 
   3   0   0   8   7   1   0   0   0   0   0   4   0   0   0   0   6   0   0   0   0   0   0   0   0   0   0   0   0   0   7  10 99 96 89 87 86 84 83 79 69 55 
   9   0   0   0   4   0   5   0   0   0   0   0   0   0   0   0   0   0   0   0   6   0   0   0   0   0   0   0   0   0   0   9 97 96 94 92 91 81 79 63 61 
   3   0   0   0   0   0   0   0   0   9   0   0   0   0   0   4   0   0   0   0   0   6   0   0   0  10   0   0   0   0   0  11 99 96 94 91 89 84 83 81 80 69 60 
   5   0   0   0   0   0   0   6   0   0   0   0   4   0   0   0   0   0   0   0   0   0   0   0   0   0   0   0   0   0   0   7 101 100 89 88 70 63 60 
   5   0   0   0   0   0   0   0   0   0   0   0   0   5   0  10   0   0   0   6   6   0   5   0   0   0   0   0   5   0  10  14 100 95 94 93 92 90 86 85 84 82 81 80 77 76 
   5   0   0   0   0   0   0   0   5   0   0   0   0   0   0   0   0   0   0   6   0   0   0   0   7   0   0   0   0   0   0   8 93 92 87 84 83 77 69 62 
   3   0   0   0   0   0   0   0   0   0   0   0   0   8   0   0   0   0   5   0   0   0   0   0   0   7   7   0   0   0   0  12 97 92 90 89 88 87 83 82 81 79 78 77 
   7   0   0   0   0   0   0   0   0   0   0   0   0   0   0   0   0   0   6   0   0   0   0   0   0   0   0   0   0   0   0   8 97 93 88 87 84 83 80 60 
  10   0   0   0   0   0   0   0   0   0   6   0   0   0   0   0   0   0   0   0   0   0   0   0   6   0   0   0   0   0   0   7 93 91 89 87 86 85 61 
   3   0   0   0   0   0   0   0   0   0   0   0   0   0   0   0   0   0   0   0   0   5   0   0   0   0   0   7   0   4  10   7 95 92 90 80 79 76 61 
  10   0   0   0   0   0   0   7   5   0   0   0   0   0   0   0   0   0   0   0   0   0   0   0   0   0  10   0   0   0   0   7 91 87 86 83 81 80 60 
   5   4   7   0   0   0   0   0   0   0   0   0   0   0   0   0   0   0   4   0   0   0   0   0   0   0   0   0   0   0   0   6 89 87 85 80 79 61 
   1   0   0   0   0   0   0   0   0   0   0   0   0   0   0   0   0   0   0   0   0   7   0  10   6   0   0   0   0   0   0   9 99 94 87 83 81 80 79 78 76 
   2   0   3   0   0   0   0   0   0   0   0   0   0   0   0   0   0   0   5   0   0   0   0   0   0   0   0   6   0   0   8   8 94 90 82 81 79 78 77 76 
   8   0   6   0   0   4   0   0   0   0   6   0   0   6   0   0   0   0   0   0   0  10   0   0   0   7   0   7   0   0   0   4 85 81 80 60 
   5   0   0   0   0   0   0   0   7   0   0   0   0   0   0   0   0   0   0   7   0   0   0   0   0   0   0   0   7   0   0   7 97 95 92 84 81 80 76 
   5   0   0   0   0   0   0   0   0   0   0   0   0   0   0   0   0   0   0   0   0   0   0   6   0   0   0   0   0   0   5   6 91 81 80 78 77 76 
   7   0   0   0   0   0   0   0   7   0   0   0   6   0   0   0   0   9   0   0   0   0   3   0   4   5   8   0   0   0   0   5 89 81 79 78 77 
   4   0   7   0   0   7   0   0   0   0   0   0   0   4   0   0   0   0   0   0   0   0   0   0   0   0   0   0   0   0   0   5 94 91 86 85 80 
   2   0   0   0   0   4   0   0   0   5   0   0   0   0   0   0   0   0   0   0   7   0   0   6   0   0   0   0   0   0   0   5 89 86 82 77 76 
   5   0   0   0   0  10   0   0   0   0   0   0   0   0   0   0   0   0   0   0   0   0   0   0   0   0   0   0   0   0   0   5 95 85 83 78 76 
   1   0   0   0   0   0   0   0   0   0   0   0   0   0   0   0   0   0   6   0   0   0   0   0   7   0   6   0   0   0   0   4 79 78 77 76 
   3   0   0   0   0   8   0   0   0   0   0   7   0   8   0   0   6   0   0   0   0   0   8   0   0   0   0   5   0   0   0   4 88 82 78 77 
  10   6   0   0   0   0   0   0   0   0   0   0   0   0   0   0   0   0   0   0   0   9   0   0   8   0   8   7   0   0   0   4 96 86 81 79 
   6   0   0   0   0   6   0   0   0   0   0   0   0   4   0  10   0   0   0   0   0   0   0   0   0   0   0   0   6   0   0   4 90 84 80 76 
   4   0   0   0   0   0   0   0   0   0   0   0   0   0   0   0   0   0   0   0   0   0   0   0   0   0   0   0   0   0   0   4 85 83 81 80 
   2   0   0   0   0   0   0   0   0   0   4   0   6   0   0   0   0   0   0   0   5   0   0   0   0   0   0   0  10   0   0   4 98 86 83 76 
   6   0   0   0   0   0   0   0   0   0   6   0   0   0   0   0   0   6   0   0   0   0   0   0   0   0   7   0   0   0   0   4 93 83 78 77 
   1   0   0   0   0   0   0   0   0   0   0   0   0   0   0   0   0   0   0   0   0   0   0   0   0   0   0   0   0   0   0   3 86 82 80 
   8   7   0  10   0   7   0   8   0   0   0   0   0   0   0   4   0   0   0   0   0   0   0   0   0   0   0   0   0   0   0   3 87 82 77 
   1   2   0   0   0   0   0   0   0   0   0   8   0  10   0   0   0   0   0   0   7   0   0   0   0   0   0   9   0   0   0   2 85 76 
   9   6   0   0   5   7   0   0   6   0   0   0   0   0   0   0   0   0   0   0   0   0   0   0   0   6   0   0   3   0   0   2 92 82 
   4   0   0   0   0   0   0   0   0   0   0   0   0   0   0   0   0   0   0   0   4   0   0   0   0   4   0   0   0   0   4   2 93 76 
   9   0   0   0   0   0   0   0   0   0   0   0   0   0   0   0   0   0   0   0   0   0   0   9   0   0   0   7   0   0   0   2 90 85 
   8   0   0   0   0   0   0   0   0   0   0   0   0   0   0   6   0   0   0   0   0   0   0   0   0   0   0   0   0   0   0   1 84 
   2   0   0   4   0   7   0   0   0   0   0   0   0   0   0   0   0   0   6   0   0   0   0   0   0   0   0   0   0   0   0   1 79 
   3   0   0   0   0   0   0   0   0   0   0   0   0   0   0   6   0   0  10   0   7   0   0   0   0   0   0   5   0   9   0   1 87 
   6   0   0   0   0   0   0   0   0   0   0   0   0   0   0   0   0   0   0   0   0   0   0   7   0   0   0   0   0   0   0   1 102
   6   7   7   0   0   0   0   0   0   0   0   0   0   6   0   0   0   0   8   0   0   0   0   0   0   0   0   0   0   0   0   1 102
   9   0   0   0   0   0   5   0   0   0   0   0   0   0   0   0   0   0   0   0   0   0   0   0   0   0   0   0   0   0   0   1 102
   2   8   0   6   8   6   0   7   0   0   0   0   0   0   0   0   0   0   4   0   0   0   0   0   0   0   0   9   0   0   0   1 102
   7   0   0   0   0   0   0   0   0   0   0   4   0   0   0   0   0   6   0   0   0   0   0   0   8   0   0   0   9   0   0   1 102
   4   0   5   0   0   0   0   0   0   0   0   0   0   0   0   0   0   0   0   0   0   0   0   0   0   0   0   6   0   5   0   1 102
   7   0   0   0   0   0   7   0   0   0   0   0   0   0   0   0   0   0   0   0   0   0   0   0   0   0   0   0   0   0   0   1 102
   4   7   0   0   8   0   0   0   0   0   0   0   0   0   0   0   0   0   3   0   0   0   0   0   0   0   0   0   0   0   0   1 102
   6   0   7   0   0   0   0   0   0   0   0   0   0   0   0   0   0   5   0   0   0   0   0   0  10   0   0   0   0   2   0   1 102
  10   0   0   0   0   0   0   0   0   0   0   6   0   0   0   0   0   0   0   0   6   0   0   0   0   2   0   0   0   0   0   1 102
   1   0   0   0   0   8   0   8   0   0   0   0   0   0   0   0   0   0   0   0   0   0   0   0   0   0   0   0   0   0   0   1 102
   9   0   0   0   0   0   4   0   0   7   0   0   0   0   0   0   0   0   0   7   0   7   8   0   0   0   6   0   0   0   0   1 102
   3   0   0   0   0   0   0   0   0  10   0   4   0   0   0   0   0   0   8   0   0   0   0   0   0   0   0   0   0   0   0   1 102
   7   4   0   0   3   0   0   0   0   0   0  10   7   0   0   0   0   0   0   9   0   0   0   0   0   0   0   0   0   0   0   1 102
   5   0   0   0   0   0   0   0   0   0   9   0   8   0   0   0   0   4   0   0   0   0   0   0   0   0   0   0   6   0   0   1 102
   1   0   0   0   0   0   0   0   0   0   0   0   0   0   0   0   0   0   0   0   0   0   0   0   0   0   0   0   0   0   0   1 102
   9   0   0   0   0   5   0   0   0   0   0   0   0   0   0   0   0   0   0   0   0   0   0   8   0   0   0   0   0   0   0   1 102
   2   0   0   0   0   5   0   0   0   0   0   0   0   0   0   6   0   0   0   0   0   0   0   0   0   0   7   0   0   0   0   1 102
   9   0   0   0   0   0   0   0   8   0   0   0   7   0   0   0   0   0   0   0   0   5   0   0   0   0   0   5   0   0   0   1 102
   2   0   2   4   7   0   0   0   0   0   0   6   5   0   0   0   0   0   0   0   0   0   0   0   0   0   0   0   0   0   7   1 102
   7   0   0   0   3   0   7   0   0   0   0   0   0   0   0   0   0   0   0   0   0   0   0   1   0   0   0   0   0   0   0   1 102
   6   0   8   0   9   0   0   4   0   0   0   0   0   0   0   0   0   0   0   0   0   0   0   0   0   5   0   0   0   4   0   1 102
   4   0   0   0   0   0   0   0   0   0   7   5   0   0   0   0   0   5   0   0   0   0   0   0   0   0   0   0   0   0   0   1 102
   5   0  10   0   0   0   0   0   0   0   0   0   0   0   0   8   0   0   0   5   0   0   0   0   0   0   5   0   0   0   0   1 102
   4   0   0   0   0   0   0   0   0   0   0   0   0   0   0   7   0   0   0   0   0   0   0   0   0   0   0   0   0   0   0   1 102
  10   0   0   0   0   0   0   0   5   6   8   5   7   0   0   0   0   0   0   0   0   0   0   0   0   0   2   7   0   4   0   1 102
   0   0   0   0   0   0   0   0   0   0   0   0   0   0   0   0   0   0   0   0   0   0   0   0   0   0   0   0   0   0   0   0 
